(set-info :smt-lib-version 2.6)
(set-logic UF)
(set-info :source |Benchmarks from the paper: "Extending Sledgehammer with SMT Solvers" by Jasmin Blanchette, Sascha Bohme, and Lawrence C. Paulson, CADE 2011.  Translated to SMT2 by Andrew Reynolds and Morgan Deters.|)
(set-info :category "industrial")
(set-info :status unsat)
(declare-sort S1 0)
(declare-sort S2 0)
(declare-sort S3 0)
(declare-sort S4 0)
(declare-sort S5 0)
(declare-sort S6 0)
(declare-sort S7 0)
(declare-sort S8 0)
(declare-sort S9 0)
(declare-fun f1 () S1)
(declare-fun f2 () S1)
(declare-fun f3 (S2 S3) S1)
(declare-fun f4 (S3) S2)
(declare-fun f5 (S4 S3) S3)
(declare-fun f6 (S5 S3) S4)
(declare-fun f7 () S5)
(declare-fun f8 () S5)
(declare-fun f9 () S4)
(declare-fun f10 () S4)
(declare-fun f11 () S4)
(declare-fun f12 () S3)
(declare-fun f13 () S3)
(declare-fun f14 () S3)
(declare-fun f15 () S3)
(declare-fun f16 (S3) S1)
(declare-fun f17 (S6 S7) S7)
(declare-fun f18 (S8 S7) S6)
(declare-fun f19 () S8)
(declare-fun f20 () S7)
(declare-fun f21 (S9 S3) S7)
(declare-fun f22 () S9)
(declare-fun f23 () S8)
(declare-fun f24 (S7 S7) S1)
(declare-fun f25 () S7)
(assert (not (= f1 f2)))
(assert (not (= (f3 (f4 (f5 (f6 f7 (f5 (f6 f8 (f5 f9 (f5 f10 (f5 f10 (f5 f11 f12))))) f13)) f14)) f14) f1)))
(assert (= (f3 (f4 f13) f15) f1))
(assert (= (f3 (f4 f13) f15) f1))
(assert (not (= (f3 (f4 f14) f13) f1)))
(assert (= (f16 (f5 (f6 f7 (f5 (f6 f8 (f5 f9 (f5 f10 (f5 f10 (f5 f11 f12))))) f13)) f14)) f1))
(assert (forall ((?v0 S3)) (= (f5 (f6 f7 f14) (f5 f9 ?v0)) (f5 f9 (f5 (f6 f7 (f5 f11 f12)) ?v0)))))
(assert (forall ((?v0 S3)) (= (f5 (f6 f7 (f5 f9 ?v0)) f14) (f5 f9 (f5 (f6 f7 ?v0) (f5 f11 f12))))))
(assert (forall ((?v0 S3)) (= (= (f3 (f4 f14) (f5 f9 ?v0)) f1) (= (f3 (f4 (f5 f11 f12)) ?v0) f1))))
(assert (forall ((?v0 S3)) (= (= (f3 (f4 (f5 f9 ?v0)) f14) f1) (= (f3 (f4 ?v0) (f5 f11 f12)) f1))))
(assert (= (f5 (f6 f7 f14) f14) (f5 f9 (f5 f10 (f5 f11 f12)))))
(assert (= (f17 (f18 f19 f20) f20) (f21 f22 (f5 f10 (f5 f11 f12)))))
(assert (= (f5 (f6 f7 f14) f14) (f5 f9 (f5 f10 (f5 f11 f12)))))
(assert (forall ((?v0 S3)) (= (f5 (f6 f8 ?v0) (f5 f9 (f5 f10 (f5 f11 f12)))) (f5 (f6 f7 ?v0) ?v0))))
(assert (forall ((?v0 S7)) (= (f17 (f18 f23 ?v0) (f21 f22 (f5 f10 (f5 f11 f12)))) (f17 (f18 f19 ?v0) ?v0))))
(assert (forall ((?v0 S3)) (= (f5 (f6 f8 ?v0) (f5 f9 (f5 f10 (f5 f11 f12)))) (f5 (f6 f7 ?v0) ?v0))))
(assert (forall ((?v0 S3)) (= (f5 (f6 f8 (f5 f9 (f5 f10 (f5 f11 f12)))) ?v0) (f5 (f6 f7 ?v0) ?v0))))
(assert (forall ((?v0 S7)) (= (f17 (f18 f23 (f21 f22 (f5 f10 (f5 f11 f12)))) ?v0) (f17 (f18 f19 ?v0) ?v0))))
(assert (forall ((?v0 S3)) (= (f5 (f6 f8 (f5 f9 (f5 f10 (f5 f11 f12)))) ?v0) (f5 (f6 f7 ?v0) ?v0))))
(assert (forall ((?v0 S3) (?v1 S3)) (let ((?v_0 (f4 f12))) (=> (= (f3 ?v_0 ?v0) f1) (=> (= (f3 ?v_0 ?v1) f1) (= (f17 (f18 f19 (f21 f22 ?v0)) (f21 f22 ?v1)) (f21 f22 (f5 (f6 f7 ?v0) ?v1))))))))
(assert (forall ((?v0 S3) (?v1 S3)) (let ((?v_0 (f4 f12))) (=> (= (f3 ?v_0 ?v0) f1) (=> (= (f3 ?v_0 ?v1) f1) (= (f5 (f6 f7 (f5 f9 ?v0)) (f5 f9 ?v1)) (f5 f9 (f5 (f6 f7 ?v0) ?v1))))))))
(assert (forall ((?v0 S3) (?v1 S3)) (let ((?v_0 (f4 f12))) (=> (= (f3 ?v_0 ?v0) f1) (=> (= (f3 ?v_0 ?v1) f1) (= (f17 (f18 f23 (f21 f22 ?v0)) (f21 f22 ?v1)) (f21 f22 (f5 (f6 f8 ?v0) ?v1))))))))
(assert (forall ((?v0 S3) (?v1 S3)) (let ((?v_0 (f4 f12))) (=> (= (f3 ?v_0 ?v0) f1) (=> (= (f3 ?v_0 ?v1) f1) (= (f5 (f6 f8 (f5 f9 ?v0)) (f5 f9 ?v1)) (f5 f9 (f5 (f6 f8 ?v0) ?v1))))))))
(assert (= (f21 f22 (f5 f11 f12)) f20))
(assert (= f20 (f21 f22 (f5 f11 f12))))
(assert (forall ((?v0 S3) (?v1 S3)) (let ((?v_0 (f4 ?v0))) (= (= (f24 (f21 f22 ?v0) (f21 f22 ?v1)) f1) (ite (= (f3 ?v_0 ?v1) f1) true (= (f3 ?v_0 f12) f1))))))
(assert (forall ((?v0 S7)) (= (f17 (f18 f23 (f21 f22 (f5 f10 (f5 f11 f12)))) ?v0) (f17 (f18 f19 ?v0) ?v0))))
(assert (forall ((?v0 S7)) (= (f17 (f18 f23 ?v0) (f21 f22 (f5 f10 (f5 f11 f12)))) (f17 (f18 f19 ?v0) ?v0))))
(assert (= (f17 (f18 f19 f20) f20) (f21 f22 (f5 f10 (f5 f11 f12)))))
(assert (forall ((?v0 S3)) (= (= (f5 (f6 f7 ?v0) ?v0) f15) (= ?v0 f15))))
(assert (= f12 f15))
(assert (not (= f15 f14)))
(assert (forall ((?v0 S3)) (= (f5 (f6 f7 ?v0) f15) ?v0)))
(assert (forall ((?v0 S3)) (= (f5 (f6 f7 f15) ?v0) ?v0)))
(assert (forall ((?v0 S3) (?v1 S3)) (= (= (f5 f9 ?v0) (f5 f9 ?v1)) (= ?v0 ?v1))))
(assert (forall ((?v0 S3) (?v1 S7)) (let ((?v_0 (f21 f22 ?v0))) (= (= ?v_0 ?v1) (= ?v1 ?v_0)))))
(assert (forall ((?v0 S3) (?v1 S3)) (let ((?v_0 (f5 f9 ?v0))) (= (= ?v_0 ?v1) (= ?v1 ?v_0)))))
(assert (forall ((?v0 S3) (?v1 S3)) (= (= (f5 f11 ?v0) (f5 f11 ?v1)) (= ?v0 ?v1))))
(assert (= (= f12 f12) true))
(assert (forall ((?v0 S3) (?v1 S3)) (= (= (f5 f10 ?v0) (f5 f10 ?v1)) (= ?v0 ?v1))))
(assert (forall ((?v0 S3) (?v1 S3)) (=> (= (f3 (f4 ?v0) ?v1) f1) (=> (= (f3 (f4 ?v1) ?v0) f1) (= ?v0 ?v1)))))
(assert (forall ((?v0 S3) (?v1 S3) (?v2 S3)) (let ((?v_0 (f4 ?v0))) (=> (= (f3 ?v_0 ?v1) f1) (=> (= (f3 (f4 ?v1) ?v2) f1) (= (f3 ?v_0 ?v2) f1))))))
(assert (forall ((?v0 S3) (?v1 S3)) (or (= (f3 (f4 ?v0) ?v1) f1) (= (f3 (f4 ?v1) ?v0) f1))))
(assert (forall ((?v0 S3)) (= (f3 (f4 ?v0) ?v0) f1)))
(assert (forall ((?v0 S3) (?v1 S3) (?v2 S3)) (let ((?v_0 (f6 f8 ?v0))) (= (f5 (f6 f8 (f5 ?v_0 ?v1)) ?v2) (f5 ?v_0 (f5 (f6 f8 ?v1) ?v2))))))
(assert (forall ((?v0 S3) (?v1 S3)) (= (f5 (f6 f8 ?v0) ?v1) (f5 (f6 f8 ?v1) ?v0))))
(assert (forall ((?v0 S3)) (= (f5 f9 ?v0) ?v0)))
(assert (forall ((?v0 S3) (?v1 S3) (?v2 S3)) (let ((?v_0 (f6 f7 ?v0))) (= (f5 (f6 f7 (f5 ?v_0 ?v1)) ?v2) (f5 ?v_0 (f5 (f6 f7 ?v1) ?v2))))))
(assert (forall ((?v0 S3) (?v1 S3) (?v2 S3)) (let ((?v_1 (f6 f7 ?v0)) (?v_0 (f6 f7 ?v1))) (= (f5 ?v_1 (f5 ?v_0 ?v2)) (f5 ?v_0 (f5 ?v_1 ?v2))))))
(assert (forall ((?v0 S3) (?v1 S3)) (= (f5 (f6 f7 ?v0) ?v1) (f5 (f6 f7 ?v1) ?v0))))
(assert (forall ((?v0 S3) (?v1 S3)) (= (= (f5 (f6 f7 (f5 (f6 f8 ?v0) ?v0)) (f5 (f6 f8 ?v1) ?v1)) f15) (and (= ?v0 f15) (= ?v1 f15)))))
(assert (= (f21 f22 f12) f25))
(assert (= (f5 f9 f12) f15))
(assert (= (f5 f9 f12) f15))
(assert (= f15 (f5 f9 f12)))
(assert (= f15 (f5 f9 f12)))
(assert (forall ((?v0 S3)) (not (= (f5 (f6 f7 (f5 (f6 f7 f14) ?v0)) ?v0) f15))))
(assert (forall ((?v0 S3) (?v1 S3)) (= (= (f3 (f4 (f5 (f6 f7 (f5 (f6 f8 ?v0) ?v0)) (f5 (f6 f8 ?v1) ?v1))) f15) f1) (and (= ?v0 f15) (= ?v1 f15)))))
(assert (forall ((?v0 S3) (?v1 S3)) (= (f3 (f4 f15) (f5 (f6 f7 (f5 (f6 f8 ?v0) ?v0)) (f5 (f6 f8 ?v1) ?v1))) f1)))
(assert (forall ((?v0 S3)) (let ((?v_0 (f5 f9 ?v0))) (= (f5 f9 (f5 f10 ?v0)) (f5 (f6 f7 (f5 (f6 f7 f15) ?v_0)) ?v_0)))))
(assert (forall ((?v0 S3)) (= (= (f5 f11 ?v0) f12) false)))
(assert (forall ((?v0 S3)) (= (= f12 (f5 f11 ?v0)) false)))
(assert (forall ((?v0 S3) (?v1 S3)) (= (= (f5 f11 ?v0) (f5 f10 ?v1)) false)))
(assert (forall ((?v0 S3) (?v1 S3)) (= (= (f5 f10 ?v0) (f5 f11 ?v1)) false)))
(assert (forall ((?v0 S3)) (= (= (f5 f10 ?v0) f12) (= ?v0 f12))))
(assert (forall ((?v0 S3)) (= (= f12 (f5 f10 ?v0)) (= f12 ?v0))))
(assert (= (f5 f10 f12) f12))
(assert (forall ((?v0 S3) (?v1 S3)) (= (= (f3 (f4 (f5 f11 ?v0)) (f5 f11 ?v1)) f1) (= (f3 (f4 ?v0) ?v1) f1))))
(assert (forall ((?v0 S3) (?v1 S3)) (= (= (f3 (f4 (f5 f11 ?v0)) (f5 f11 ?v1)) f1) (= (f3 (f4 ?v0) ?v1) f1))))
(assert (= (= (f3 (f4 f12) f12) f1) true))
(assert (forall ((?v0 S3) (?v1 S3)) (= (= (f3 (f4 (f5 f10 ?v0)) (f5 f10 ?v1)) f1) (= (f3 (f4 ?v0) ?v1) f1))))
(assert (forall ((?v0 S3) (?v1 S3)) (= (= (f3 (f4 (f5 f10 ?v0)) (f5 f10 ?v1)) f1) (= (f3 (f4 ?v0) ?v1) f1))))
(assert (forall ((?v0 S3)) (= (f5 (f6 f8 f12) ?v0) f12)))
(assert (forall ((?v0 S3) (?v1 S3)) (= (f5 (f6 f8 (f5 f10 ?v0)) ?v1) (f5 f10 (f5 (f6 f8 ?v0) ?v1)))))
(assert (forall ((?v0 S3)) (= (f5 (f6 f7 ?v0) f12) ?v0)))
(assert (forall ((?v0 S3)) (= (f5 (f6 f7 f12) ?v0) ?v0)))
(assert (forall ((?v0 S3) (?v1 S3)) (= (f5 (f6 f7 (f5 f10 ?v0)) (f5 f10 ?v1)) (f5 f10 (f5 (f6 f7 ?v0) ?v1)))))
(assert (forall ((?v0 S3)) (= (f5 f10 ?v0) (f5 (f6 f7 ?v0) ?v0))))
(assert (forall ((?v0 S3)) (= (f5 (f6 f8 ?v0) f14) ?v0)))
(assert (forall ((?v0 S3)) (= (f5 (f6 f8 f14) ?v0) ?v0)))
(assert (forall ((?v0 S3) (?v1 S3)) (= (= (f3 (f4 (f5 f9 ?v0)) (f5 f9 ?v1)) f1) (= (f3 (f4 ?v0) ?v1) f1))))
(assert (forall ((?v0 S3) (?v1 S3) (?v2 S3)) (let ((?v_0 (f6 f7 ?v2))) (=> (= (f3 (f4 ?v0) ?v1) f1) (= (f3 (f4 (f5 ?v_0 ?v0)) (f5 ?v_0 ?v1)) f1)))))
(assert (forall ((?v0 S3) (?v1 S3)) (= (f5 (f6 f8 (f5 f9 ?v0)) (f5 f9 ?v1)) (f5 f9 (f5 (f6 f8 ?v0) ?v1)))))
(assert (forall ((?v0 S3) (?v1 S3) (?v2 S3)) (= (f5 (f6 f8 (f5 (f6 f7 ?v0) ?v1)) ?v2) (f5 (f6 f7 (f5 (f6 f8 ?v0) ?v2)) (f5 (f6 f8 ?v1) ?v2)))))
(assert (forall ((?v0 S3) (?v1 S3) (?v2 S3)) (let ((?v_0 (f6 f8 ?v0))) (= (f5 ?v_0 (f5 (f6 f7 ?v1) ?v2)) (f5 (f6 f7 (f5 ?v_0 ?v1)) (f5 ?v_0 ?v2))))))
(assert (forall ((?v0 S3) (?v1 S3)) (= (f5 (f6 f7 (f5 f9 ?v0)) (f5 f9 ?v1)) (f5 f9 (f5 (f6 f7 ?v0) ?v1)))))
(assert (forall ((?v0 S3)) (= (= (f3 (f4 (f5 f9 ?v0)) f15) f1) (= (f3 (f4 ?v0) f12) f1))))
(assert (forall ((?v0 S3)) (= (= (f3 (f4 f15) (f5 f9 ?v0)) f1) (= (f3 (f4 f12) ?v0) f1))))
(assert (forall ((?v0 S7) (?v1 S7) (?v2 S3)) (let ((?v_0 (f21 f22 ?v2))) (= (f17 (f18 f23 (f17 (f18 f19 ?v0) ?v1)) ?v_0) (f17 (f18 f19 (f17 (f18 f23 ?v0) ?v_0)) (f17 (f18 f23 ?v1) ?v_0))))))
(assert (forall ((?v0 S3) (?v1 S3) (?v2 S3)) (let ((?v_0 (f5 f9 ?v2))) (= (f5 (f6 f8 (f5 (f6 f7 ?v0) ?v1)) ?v_0) (f5 (f6 f7 (f5 (f6 f8 ?v0) ?v_0)) (f5 (f6 f8 ?v1) ?v_0))))))
(assert (forall ((?v0 S3) (?v1 S7) (?v2 S7)) (let ((?v_0 (f18 f23 (f21 f22 ?v0)))) (= (f17 ?v_0 (f17 (f18 f19 ?v1) ?v2)) (f17 (f18 f19 (f17 ?v_0 ?v1)) (f17 ?v_0 ?v2))))))
(assert (forall ((?v0 S3) (?v1 S3) (?v2 S3)) (let ((?v_0 (f6 f8 (f5 f9 ?v0)))) (= (f5 ?v_0 (f5 (f6 f7 ?v1) ?v2)) (f5 (f6 f7 (f5 ?v_0 ?v1)) (f5 ?v_0 ?v2))))))
(assert (forall ((?v0 S3)) (= (f5 (f6 f7 (f5 f9 f12)) ?v0) ?v0)))
(assert (forall ((?v0 S3)) (= (f5 (f6 f7 ?v0) (f5 f9 f12)) ?v0)))
(assert (forall ((?v0 S3) (?v1 S3)) (= (= (f3 (f4 (f5 f9 ?v0)) (f5 f9 ?v1)) f1) (= (f3 (f4 ?v0) ?v1) f1))))
(assert (forall ((?v0 S3) (?v1 S3) (?v2 S3)) (= (f5 (f6 f8 (f5 f9 ?v0)) (f5 (f6 f8 (f5 f9 ?v1)) ?v2)) (f5 (f6 f8 (f5 f9 (f5 (f6 f8 ?v0) ?v1))) ?v2))))
(assert (forall ((?v0 S3) (?v1 S3)) (= (f5 (f6 f8 (f5 f9 ?v0)) (f5 f9 ?v1)) (f5 f9 (f5 (f6 f8 ?v0) ?v1)))))
(assert (forall ((?v0 S3) (?v1 S3)) (= (f5 f9 (f5 (f6 f8 ?v0) ?v1)) (f5 (f6 f8 (f5 f9 ?v0)) (f5 f9 ?v1)))))
(assert (forall ((?v0 S3) (?v1 S3) (?v2 S3)) (= (f5 (f6 f7 (f5 f9 ?v0)) (f5 (f6 f7 (f5 f9 ?v1)) ?v2)) (f5 (f6 f7 (f5 f9 (f5 (f6 f7 ?v0) ?v1))) ?v2))))
(assert (forall ((?v0 S3) (?v1 S3)) (= (f5 (f6 f7 (f5 f9 ?v0)) (f5 f9 ?v1)) (f5 f9 (f5 (f6 f7 ?v0) ?v1)))))
(assert (forall ((?v0 S3) (?v1 S3)) (= (f5 f9 (f5 (f6 f7 ?v0) ?v1)) (f5 (f6 f7 (f5 f9 ?v0)) (f5 f9 ?v1)))))
(assert (forall ((?v0 S3)) (let ((?v_0 (f4 f12))) (= (= (f3 ?v_0 (f5 f11 ?v0)) f1) (= (f3 ?v_0 ?v0) f1)))))
(assert (forall ((?v0 S3) (?v1 S3)) (= (= (f3 (f4 (f5 f10 ?v0)) (f5 f11 ?v1)) f1) (= (f3 (f4 ?v0) ?v1) f1))))
(assert (forall ((?v0 S3) (?v1 S3)) (= (= (f3 (f4 (f5 f10 ?v0)) (f5 f11 ?v1)) f1) (= (f3 (f4 ?v0) ?v1) f1))))
(assert (forall ((?v0 S3)) (= (= (f3 (f4 (f5 f10 ?v0)) f12) f1) (= (f3 (f4 ?v0) f12) f1))))
(assert (forall ((?v0 S3)) (let ((?v_0 (f4 f12))) (= (= (f3 ?v_0 (f5 f10 ?v0)) f1) (= (f3 ?v_0 ?v0) f1)))))
(assert (forall ((?v0 S3) (?v1 S3)) (= (f5 (f6 f7 (f5 f11 ?v0)) (f5 f10 ?v1)) (f5 f11 (f5 (f6 f7 ?v0) ?v1)))))
(assert (forall ((?v0 S3) (?v1 S3)) (= (f5 (f6 f7 (f5 f10 ?v0)) (f5 f11 ?v1)) (f5 f11 (f5 (f6 f7 ?v0) ?v1)))))
(assert (forall ((?v0 S3)) (= (f5 f11 ?v0) (f5 (f6 f7 (f5 (f6 f7 f14) ?v0)) ?v0))))
(assert (forall ((?v0 S3)) (let ((?v_0 (f5 f9 ?v0))) (= (f5 f9 (f5 f11 ?v0)) (f5 (f6 f7 (f5 (f6 f7 f14) ?v_0)) ?v_0)))))
(assert (forall ((?v0 S3)) (= (f5 (f6 f8 (f5 f9 (f5 f11 f12))) ?v0) ?v0)))
(assert (forall ((?v0 S3)) (= (f5 (f6 f8 ?v0) (f5 f9 (f5 f11 f12))) ?v0)))
(assert (= (f21 f22 (f5 f11 f12)) f20))
(assert (= (f5 f9 (f5 f11 f12)) f14))
(assert (= (f5 f9 (f5 f11 f12)) f14))
(assert (= f14 (f5 f9 (f5 f11 f12))))
(assert (= f14 (f5 f9 (f5 f11 f12))))
(assert (forall ((?v0 S3) (?v1 S3)) (= (f5 (f6 f8 (f5 f11 ?v0)) ?v1) (f5 (f6 f7 (f5 f10 (f5 (f6 f8 ?v0) ?v1))) ?v1))))
(assert (forall ((?v0 S3)) (= (f5 (f6 f8 (f5 (f6 f7 f14) f14)) (f5 f9 ?v0)) (f5 f9 (f5 f10 ?v0)))))
(assert (forall ((?v0 S3)) (let ((?v_0 (f5 f11 f12))) (let ((?v_1 (f5 f10 ?v_0))) (=> (= (f16 ?v0) f1) (=> (not (= ?v0 (f5 f9 ?v_1))) (=> (not (= ?v0 (f5 f9 (f5 f11 ?v_0)))) (= (f3 (f4 (f5 f9 (f5 f11 ?v_1))) ?v0) f1))))))))
(assert (= (f3 (f4 f15) (f5 f9 (f5 f10 (f5 f11 f12)))) f1))
(assert (= (f16 (f5 f9 (f5 f10 (f5 f11 f12)))) f1))
(assert (forall ((?v0 S3)) (let ((?v_0 (f4 f15))) (=> (= (f3 ?v_0 (f5 f9 ?v0)) f1) (and (= (f3 ?v_0 (f5 f9 (f5 f10 ?v0))) f1) (= (f3 ?v_0 (f5 f9 (f5 f11 ?v0))) f1))))))
(assert (= (f3 (f4 f15) (f5 f9 (f5 f11 (f5 f11 f12)))) f1))
(assert (forall ((?v0 S3) (?v1 S3) (?v2 S3) (?v3 S3) (?v4 S3)) (let ((?v_0 (f4 f15))) (=> (= (f3 (f4 ?v0) ?v1) f1) (=> (= (f3 (f4 ?v2) ?v1) f1) (=> (= (f3 ?v_0 ?v3) f1) (=> (= (f3 ?v_0 ?v4) f1) (=> (= (f5 (f6 f7 ?v3) ?v4) f14) (= (f3 (f4 (f5 (f6 f7 (f5 (f6 f8 ?v3) ?v0)) (f5 (f6 f8 ?v4) ?v2))) ?v1) f1)))))))))
(assert (= (f3 (f4 f15) (f5 f9 f12)) f1))
(assert (forall ((?v0 S3) (?v1 S3)) (let ((?v_0 (f4 f15))) (=> (= (f3 ?v_0 ?v0) f1) (=> (= (f3 ?v_0 ?v1) f1) (=> (= (f3 (f4 ?v1) f14) f1) (= (f3 (f4 (f5 (f6 f8 ?v1) ?v0)) ?v0) f1)))))))
(assert (forall ((?v0 S3) (?v1 S3)) (let ((?v_0 (f4 f15))) (=> (= (f3 ?v_0 ?v0) f1) (=> (= (f3 ?v_0 ?v1) f1) (=> (= (f3 (f4 ?v1) f14) f1) (= (f3 (f4 (f5 (f6 f8 ?v0) ?v1)) ?v0) f1)))))))
(assert (forall ((?v0 S3) (?v1 S3) (?v2 S2)) (=> (= (f3 (f4 ?v0) ?v1) f1) (=> (= (f3 ?v2 ?v0) f1) (=> (forall ((?v3 S3)) (=> (= (f3 (f4 ?v0) ?v3) f1) (=> (= (f3 ?v2 ?v3) f1) (= (f3 ?v2 (f5 (f6 f7 ?v3) f14)) f1)))) (= (f3 ?v2 ?v1) f1))))))
(assert (= (f21 f22 f12) f25))
(assert (= f25 (f21 f22 f12)))
(assert (forall ((?v0 S3)) (= (= f25 (f21 f22 ?v0)) (= (f3 (f4 ?v0) f12) f1))))
(assert (forall ((?v0 S3)) (= (= (f21 f22 ?v0) f25) (= (f3 (f4 ?v0) f12) f1))))
(assert (forall ((?v0 S7)) (= (f17 (f18 f23 f25) ?v0) f25)))
(assert (forall ((?v0 S3)) (= (f5 (f6 f8 f15) ?v0) f15)))
(assert (forall ((?v0 S7)) (= (f17 (f18 f23 ?v0) f25) f25)))
(assert (forall ((?v0 S3)) (= (f5 (f6 f8 ?v0) f15) f15)))
(assert (forall ((?v0 S3) (?v1 S3)) (= (= (f5 (f6 f8 ?v0) ?v1) f15) (or (= ?v0 f15) (= ?v1 f15)))))
(assert (forall ((?v0 S7) (?v1 S7)) (=> (not (= ?v0 f25)) (=> (not (= ?v1 f25)) (not (= (f17 (f18 f23 ?v0) ?v1) f25))))))
(assert (forall ((?v0 S3) (?v1 S3)) (=> (not (= ?v0 f15)) (=> (not (= ?v1 f15)) (not (= (f5 (f6 f8 ?v0) ?v1) f15))))))
(assert (forall ((?v0 S7) (?v1 S7)) (=> (= (f17 (f18 f23 ?v0) ?v1) f25) (or (= ?v0 f25) (= ?v1 f25)))))
(assert (forall ((?v0 S3) (?v1 S3)) (=> (= (f5 (f6 f8 ?v0) ?v1) f15) (or (= ?v0 f15) (= ?v1 f15)))))
(check-sat)
(exit)
